;; Original file: term_362.smt2
(set-logic HORN)
(declare-fun starexecinv1 (Real Real Real Real) Bool)

(assert (forall ((y Real)
         (|XXX0prime| Real)
         (|XXX1prime| Real)
         (|gh0prime| Real)
         (|gh1prime| Real))
  (let ((a!1 (> |gh0prime| (* (+ 0 (- 1)) |XXX0prime|)))
        (a!2 (> |gh0prime| (* (+ 0 (- 1)) |XXX1prime|)))
        (a!3 (> |gh1prime| (* (+ 0 (- 1)) |XXX0prime|)))
        (a!4 (> |gh1prime| (* (+ 0 (- 1)) |XXX1prime|))))
    (=> (and true
             (> y (+ 0 0))
             (> |XXX0prime| (+ 0 0))
             (= |XXX1prime| |XXX0prime|)
             (> |gh0prime| |XXX0prime|)
             (> |gh0prime| |XXX1prime|)
             a!1
             a!2
             (> |gh1prime| |XXX0prime|)
             (> |gh1prime| |XXX1prime|)
             a!3
             a!4)
        (starexecinv1 |XXX0prime| |XXX1prime| |gh0prime| |gh1prime|)))))
(assert (forall ((|XXX0| Real)
         (|XXX1| Real)
         (gh0 Real)
         (gh1 Real)
         (|XXX0prime| Real)
         (|XXX1prime| Real)
         (|gh1prime| Real)
         (|gh0prime| Real))
  (let ((a!1 (+ (* (+ 0 (- 4)) |XXX0|) (+ 0 18)))
        (a!2 (+ (* (+ 0 (- 6)) |XXX1|) (+ 0 13)))
        (a!3 (and (= |gh1prime| (- gh1 (+ 0 1)))
                  (> gh1 (+ 0 0))
                  (= |gh0prime| gh0)))
        (a!4 (> |gh1prime| (* (+ 0 (- 1)) |XXX0prime|)))
        (a!5 (> |gh1prime| (* (+ 0 (- 1)) |XXX1prime|))))
  (let ((a!6 (and (= |gh0prime| (- gh0 (+ 0 1)))
                  (> |gh1prime| |XXX0prime|)
                  (> |gh1prime| |XXX1prime|)
                  a!4
                  a!5
                  (<= gh1 (+ 0 0)))))
    (=> (and (starexecinv1 |XXX0| |XXX1| gh0 gh1)
             (> (+ |XXX0| |XXX1|) (+ 0 0))
             (= |XXX0prime| a!1)
             (= |XXX1prime| a!2)
             (or a!3 a!6)
             true)
        (starexecinv1 |XXX0prime| |XXX1prime| |gh0prime| |gh1prime|))))))
(assert (forall ((|XXX0| Real)
         (|XXX1| Real)
         (gh0 Real)
         (gh1 Real)
         )
  (=> (and (starexecinv1 |XXX0| |XXX1| gh0 gh1)
           (> (+ |XXX0| |XXX1|) (+ 0 0))
           (< gh0 (+ 0 0))
           true)
      false)))
(check-sat)
